maxConsec=10;
maxPresence=20;
maxHours=9;
minHours=6;
hours=72;
demand= [738 1000 1000 757 746 516 484 516 484 516 484 516 243 0 0 0 0 0 0 0 0 0 0 0 0 0 0 0 0 0 0 0 0 0 0 0 0 0 0 0 0 0 0 0 0 0 0 0 0 0 0 0 0 0 0 0 0 0 0 0 0 0 0 0 0 0 0 0 0 0 0 0  ];
numNurses=1600;